p edge 40 206 10
v 6 1 5 17 28 33 34
v 3 15 24 29
v 3 7 12 38
v 2 11 16
v 4 14 20 25 30
v 6 2 4 13 26 36 39
v 4 9 10 18 21
v 2 37 40
v 5 6 19 22 27 35
v 5 3 8 23 31 32
e 1 3
e 1 7
e 1 12
e 1 15
e 1 16
e 1 28
e 1 35
e 1 36
e 2 11
e 2 12
e 2 14
e 2 17
e 2 23
e 2 28
e 2 31
e 2 36
e 3 4
e 3 5
e 3 7
e 3 9
e 3 22
e 3 25
e 3 26
e 3 40
e 4 5
e 4 14
e 4 17
e 4 31
e 4 33
e 4 34
e 4 37
e 4 38
e 5 10
e 5 13
e 5 14
e 5 21
e 5 31
e 5 34
e 5 35
e 6 11
e 6 12
e 6 23
e 6 26
e 6 33
e 6 37
e 6 38
e 6 39
e 7 9
e 7 11
e 7 15
e 7 17
e 7 24
e 7 26
e 7 30
e 7 31
e 7 39
e 8 12
e 8 15
e 8 18
e 8 19
e 8 23
e 8 25
e 8 26
e 8 33
e 8 34
e 9 10
e 9 11
e 9 12
e 9 16
e 9 22
e 9 24
e 9 27
e 9 30
e 9 32
e 9 36
e 9 38
e 10 13
e 10 16
e 10 19
e 10 20
e 10 28
e 10 31
e 10 34
e 10 35
e 10 36
e 10 39
e 10 40
e 11 24
e 11 26
e 11 28
e 11 32
e 11 38
e 11 39
e 11 40
e 12 18
e 12 24
e 12 27
e 12 30
e 12 34
e 12 35
e 13 16
e 13 20
e 13 21
e 13 24
e 13 28
e 13 29
e 13 34
e 13 35
e 13 36
e 14 16
e 14 17
e 14 19
e 14 20
e 14 28
e 14 31
e 15 17
e 15 18
e 15 22
e 15 23
e 15 27
e 15 35
e 15 38
e 15 39
e 15 40
e 16 17
e 16 18
e 16 20
e 16 22
e 16 25
e 16 26
e 16 27
e 16 28
e 16 29
e 16 37
e 17 20
e 17 22
e 17 25
e 17 30
e 17 31
e 17 32
e 17 36
e 17 37
e 18 22
e 18 29
e 18 36
e 18 37
e 18 38
e 19 20
e 19 22
e 19 32
e 19 33
e 19 34
e 19 39
e 19 40
e 20 30
e 20 31
e 20 33
e 20 40
e 21 23
e 21 26
e 21 33
e 21 34
e 21 35
e 22 25
e 22 28
e 22 31
e 22 33
e 22 38
e 23 25
e 23 26
e 23 31
e 23 36
e 23 37
e 23 38
e 24 26
e 24 35
e 25 29
e 25 30
e 25 32
e 25 35
e 25 38
e 26 28
e 27 29
e 27 33
e 27 36
e 27 38
e 28 30
e 28 31
e 28 32
e 28 38
e 28 40
e 29 30
e 29 32
e 30 31
e 30 38
e 30 40
e 32 33
e 32 34
e 32 35
e 32 38
e 33 38
e 34 36
e 34 39
e 35 37
e 37 40
e 38 40
